# Solution for model ARKI001
# Objective value = 7.5808130459390683e+06
C0000001 2
C0000002 2
C0000003 2
C0000004 2
C0000005 4
C0000006 4
C0000007 4
C0000008 4
C0000009 2
C0000010 4
C0000011 4
C0000012 4
C0000013 0.5
C0000014 0.5
C0000015 0.5
C0000016 0.5
C0000017 1.1996875462335583e+00
C0000018 2
C0000019 0.5
C0000020 0.5
C0000021 0.5
C0000022 0.5
C0000023 0.5
C0000024 0.5
C0000025 0.5
C0000026 0.5
C0000027 0.5
C0000028 3.2329605081707293e+00
C0000029 2.07543874622885
C0000030 2.2016007456004210e+00
C0000031 0.5
C0000032 14.5
C0000033 1.3123999999999995e+01
C0000034 0.5
C0000035 5
C0000036 5
C0000037 20
C0000038 20
C0000039 1.9970712569764881e+01
C0000040 8.6528743023513144e-01
C0000041 20
C0000042 20
C0000043 6
C0000044 0.5
C0000045 0.5
C0000046 0.5
C0000047 0.5
C0000048 0.5
C0000049 0.5
C0000050 0.5
C0000051 0.5
C0000052 0.5
C0000053 0.5
C0000054 0.5
C0000055 0.5
C0000056 0.5
C0000057 0.5
C0000058 0.5
C0000059 0.5
C0000060 0.5
C0000061 0.5
C0000062 2.691
C0000063 0.5
C0000064 1.8760000000000048e+00
C0000065 19.24
C0000066 20
C0000067 20
C0000068 5
C0000069 5
C0000070 0.5
C0000071 20
C0000072 0.5
C0000073 0.5
C0000074 0.5
C0000075 1.9811566593523711e+01
C0000076 8
C0000077 22
C0000078 22
C0000079 9.01429891144549
C0000080 4.3327401381105464e+00
C0000081 9.8436869540792244e+00
C0000082 10
C0000083 10
C0000084 5.76
C0000085 0.5
C0000086 0.5
C0000087 0.5
C0000088 0.5
C0000089 0.5
C0000090 0.5
C0000091 0.5
C0000092 0.5
C0000093 0.5
C0000094 0.5
C0000095 0.5
C0000096 0.5
C0000097 0.5
C0000098 0.5
C0000099 0.5
C0000100 0.5
C0000101 4.5774884577082755e+00
C0000102 1.1893753286625675e+01
C0000103 0.5
C0000104 0.5
C0000105 7.0501406869478611e+00
C0000106 1.9674620233371893e+00
C0000107 2.3368673808109790e+00
C0000108 7.0944927154303530e+00
C0000109 7.7946964481565821e+00
C0000110 7.7613542072199513e+00
C0000111 20
C0000112 1.1048684682279529e+01
C0000113 7.16849348266294
C0000114 0.5
C0000115 4.7807600263534953e+00
C0000116 0.5
C0000117 3.2985528383913283e+00
C0000118 7.6363980913363316e-01
C0000119 2.4636139549422227e+00
C0000120 0.5
C0000121 0.5
C0000122 0.5
C0000123 0.5
C0000124 0.5
C0000125 0.5
C0000126 0.5
C0000127 0.5
C0000128 0.5
C0000129 0.5
C0000130 0.5
C0000131 0.5
C0000132 0.5
C0000133 0.5
C0000134 0.5
C0000135 0.5
C0000136 0.5
C0000137 0.5
C0000138 0.5
C0000139 0.5
C0000140 3.4378576305073509e+00
C0000141 0.5
C0000142 0.5
C0000143 5.3670268771720486e-01
C0000144 6.2533882528309148e-01
C0000145 7.1826376586923226e+00
C0000146 6.5078033003490043e+00
C0000147 0.5
C0000148 2.8820066765715473e+00
C0000149 2.93043227137152
C0000150 2.2756466855252011e+00
C0000151 6.9289611234577588e+00
C0000152 4.1569907314196772e+00
C0000153 6.6874319316649284e+00
C0000154 0.5
C0000155 6.7824657083512578e+00
C0000156 3.2483217773076056e+00
C0000157 2.6874029917819318e+00
C0000158 0.5
C0000159 0.5
C0000160 0.5
C0000161 0.5
C0000162 0.5
C0000163 0.5
C0000164 0.5
C0000165 0.5
C0000166 0.5
C0000167 0.5
C0000168 0.5
C0000169 0.5
C0000170 0.5
C0000171 0.5
C0000172 0.5
C0000173 0.5
C0000174 0.5
C0000175 0.5
C0000176 0.5
C0000177 0.5
C0000178 1.0188433406476289e+01
C0000179 22
C0000180 1.4491914594723747e+01
C0000181 1.5367637864324678e+01
C0000182 2.0985701088554510e+01
C0000183 0.5
C0000184 2.0156313045920776e+01
C0000185 0.5
C0000186 0.5
C0000187 0.5
C0000188 0.5
C0000189 0.5
C0000190 0.5
C0000191 0.5
C0000192 0.5
C0000193 1.8760282155454853e+01
C0000194 7.7916649659390469e-01
C0000195 6.0434418962935776e-01
C0000196 1.0760166876392299e+00
C0000197 1.0774474415180244e+00
C0000198 4.8886222097226684e-01
C0000199 4.9604135691375112e-01
C0000200 0.232464478413127
C0000201 2.5565334102008025e-01
C0000202 8.0010394407923546e-01
C0000203 4.6593726662758178e-01
C0000204 2.9960814979297096e-01
C0000205 3.8037485400384430e-01
C0000206 1.0869191926417331e-01
C0000207 8.7497541501890014e-02
C0000208 1.3736579652186831e-01
C0000209 8.5543536382279250e-01
C0000210 1.3073275263614970e-01
C0000211 6.0679091870772528e-01
C0000212 2.9171464494615706e-01
C0000213 2
C0000214 0.5
C0000215 0.5
C0000216 0.5
C0000217 0.5
C0000218 0.5
C0000219 0.5
C0000220 0.5
C0000221 0.5
C0000222 0.5
C0000223 0.5
C0000224 0.5
C0000225 0.5
C0000226 0.5
C0000227 0.5
C0000228 0.5
C0000229 0.5
C0000230 0.5
C0000231 0.5
C0000232 0.5
C0000233 0.5
C0000234 0.5
C0000235 3.4600000000000009e+00
C0000236 0.5
C0000237 0.5
C0000238 0.5
C0000239 4
C0000240 4.25
C0000241 4.25
C0000242 0.5
C0000243 0.5
C0000244 3
C0000245 2.0470267773783930e+00
C0000246 3
C0000247 3
C0000248 4.25
C0000249 3
C0000250 2.5729732226216044e+00
C0000251 3
C0000252 0.5
C0000253 4.25
C0000254 0.5
C0000255 0.5
C0000256 2.32894321855223
C0000257 0.5
C0000258 0.5
C0000259 0.5
C0000260 0.5
C0000261 0.5
C0000262 0.5
C0000263 0.5
C0000264 0.5
C0000265 0.5
C0000266 0.5
C0000267 0.5
C0000268 0.5
C0000269 0.5
C0000270 0.5
C0000271 3.1983820386509452e+00
C0000272 0.5
C0000273 0.5
C0000274 4.9444872379229112e+00
C0000275 0.5
C0000276 0.5
C0000277 0.5
C0000278 0.5
C0000279 0.5
C0000280 7.9119477853684117e+00
C0000281 7.9251249180323571e+00
C0000282 6.6438207557631008e+00
C0000283 6.8941564361471528e+00
C0000284 0.5
C0000285 7.8954528693125861e+00
C0000286 20
C0000287 1.4512771780971924e+01
C0000288 0.5
C0000289 3.1547425121276884e+00
C0000290 1.1208906392773481e+00
C0000291 2.6853806768172594e+00
C0000292 1.8738111959374621e+01
C0000293 0.5
C0000294 1.9739403194897260e+01
C0000295 0.5
C0000296 20
C0000297 1.9345700601975484e+01
C0000298 1.5721178871761735e+01
C0000299 0.5
C0000300 0.5
C0000301 0.5
C0000302 0.5
C0000303 0.5
C0000304 0.5
C0000305 0.5
C0000306 0.5
C0000307 0.5
C0000308 0.5
C0000309 0.5
C0000310 0.5
C0000311 1.5884613597979069e+00
C0000312 1.6563738331967763e+00
C0000313 4.6056664266867742e+00
C0000314 0.5
C0000315 4.4863258445704712e+00
C0000316 0.5
C0000317 7.1581733176567850e+00
C0000318 2.7498355423574461e+00
C0000319 3
C0000320 1.2313676654858570e+00
C0000321 1.3224949080428547e+00
C0000322 3
C0000323 3
C0000324 3
C0000325 3
C0000326 2.5667825626336649e+00
C0000327 3
C0000328 3
C0000329 3
C0000330 3
C0000331 3
C0000332 3
C0000333 1.3553184665021576e+00
C0000334 3
C0000335 3
C0000336 3
C0000337 0.5
C0000338 0.5
C0000339 0.5
C0000340 0.5
C0000341 0.5
C0000342 0.5
C0000343 0.5
C0000344 0.5
C0000345 0.5
C0000346 0.5
C0000347 0.5
C0000348 0.5
C0000349 0.5
C0000350 0.5
C0000351 0.5
C0000352 0.5
C0000353 0.5
C0000354 0.5
C0000355 0.5
C0000356 0.5
C0000357 0.5
C0000358 0.5
C0000359 0.5
C0000360 0.5
C0000361 0.5
C0000362 0.5
C0000363 0.5
C0000364 0.5
C0000365 0.5
C0000366 0.5
C0000367 0.5
C0000368 0.5
C0000369 0.5
C0000370 0.5
C0000371 0.5
C0000372 0.5
C0000373 0.5
C0000374 0.5
C0000375 0.5
C0000376 0.5
C0000377 0.5
C0000378 0.5
C0000379 0.5
C0000380 0.5
C0000381 0.5
C0000382 0.5
C0000383 0.5
C0000384 0.5
C0000385 0.5
C0000386 0.5
C0000387 0.5
C0000388 0.5
C0000389 0.5
C0000390 0.5
C0000391 0.5
C0000392 0.5
C0000393 0.5
C0000394 2.9935932421251232e+00
C0000395 0.5
C0000396 3.3963338161856429e+00
C0000397 2.7750651061227494e+00
C0000398 3.8461538461538463e+00
C0000399 5.1600823919335248e+00
C0000400 0.5
C0000401 3.1387715974791113e+00
C0000402 0.5
C0000403 0.5
C0000404 0.5
C0000405 0.5
C0000406 0
C0000407 0
C0000408 0
C0000409 0
C0000410 0
C0000411 0
C0000412 0
C0000413 0
C0000414 0
C0000415 0
C0000416 0
C0000417 0
C0000418 0
C0000419 0
C0000420 0
C0000421 0
C0000422 0
C0000423 0
C0000424 0
C0000425 0
C0000426 0
C0000427 0
C0000428 0
C0000429 0
C0000430 0
C0000431 0
C0000432 0
C0000433 0
C0000434 0
C0000435 0
C0000436 0
C0000437 0
C0000438 0
C0000439 0
C0000440 0
C0000441 0
C0000442 0
C0000443 0
C0000444 0
C0000445 7.6428785329833548e-01
C0000446 5.4447767884060039e-01
C0000447 5.3541320925901859e-01
C0000448 2.7711855227987370e-01
C0000449 3.7891121073531076e-01
C0000450 6.9867225462361582e-01
C0000451 0
C0000452 0
C0000453 0
C0000454 0
C0000455 0
C0000456 0
C0000457 0
C0000458 0
C0000459 0
C0000460 0
C0000461 0
C0000462 0
C0000463 0
C0000464 0
C0000465 0
C0000466 1.7370942290337071e-01
C0000467 0
C0000468 0
C0000469 0
C0000470 0
C0000471 0
C0000472 0
C0000473 0
C0000474 0
C0000475 0
C0000476 0
C0000477 0
C0000478 0
C0000479 0
C0000480 0
C0000481 0
C0000482 0
C0000483 0
C0000484 0
C0000485 0
C0000486 0
C0000487 0
C0000488 0
C0000489 0
C0000490 0
C0000491 0
C0000492 0
C0000493 0
C0000494 0
C0000495 0
C0000496 0
C0000497 0
C0000498 0
C0000499 0
C0000500 0
C0000501 0
C0000502 0
C0000503 0
C0000504 0
C0000505 0
C0000506 0
C0000507 0
C0000508 0
C0000509 0
C0000510 0
C0000511 0
C0000512 0
C0000513 0
C0000514 0
C0000515 0
C0000516 0
C0000517 0
C0000518 0
C0000519 0
C0000520 0
C0000521 0
C0000522 0
C0000523 0
C0000524 0
C0000525 0
C0000526 0
C0000527 0
C0000528 0
C0000529 0
C0000530 0
C0000531 0
C0000532 0
C0000533 0
C0000534 0
C0000535 0
C0000536 0
C0000537 0
C0000538 0
C0000539 0
C0000540 0
C0000541 0
C0000542 0
C0000543 0
C0000544 0
C0000545 0
C0000546 0
C0000547 0
C0000548 0
C0000549 0
C0000550 0
C0000551 0
C0000552 0
C0000553 0
C0000554 0
C0000555 0
C0000556 0
C0000557 0
C0000558 0
C0000559 0
C0000560 0
C0000561 0
C0000562 0
C0000563 0
C0000564 0
C0000565 0
C0000566 0
C0000567 0
C0000568 0
C0000569 0
C0000570 0
C0000571 0
C0000572 0
C0000573 0
C0000574 0
C0000575 0
C0000576 0
C0000577 0
C0000578 0
C0000579 0
C0000580 0
C0000581 0
C0000582 0
C0000583 0
C0000584 0
C0000585 0
C0000586 0
C0000587 0
C0000588 0
C0000589 0
C0000590 0
C0000591 0
C0000592 0
C0000593 0
C0000594 0
C0000595 0
C0000596 0
C0000597 0
C0000598 0
C0000599 0
C0000600 0
C0000601 0
C0000602 0
C0000603 0
C0000604 0
C0000605 0
C0000606 0
C0000607 0
C0000608 0
C0000609 0
C0000610 0
C0000611 0
C0000612 0
C0000613 0
C0000614 0
C0000615 0
C0000616 0
C0000617 0
C0000618 0
C0000619 0
C0000620 0
C0000621 0
C0000622 0
C0000623 0
C0000624 0
C0000625 0
C0000626 0
C0000627 0
C0000628 0
C0000629 0
C0000630 0
C0000631 0
C0000632 0
C0000633 0
C0000634 0
C0000635 0
C0000636 0
C0000637 0
C0000638 0
C0000639 0
C0000640 0
C0000641 0
C0000642 0
C0000643 0
C0000644 0
C0000645 0
C0000646 0
C0000647 0
C0000648 0
C0000649 0
C0000650 0
C0000651 0
C0000652 0
C0000653 0
C0000654 0
C0000655 0
C0000656 0
C0000657 0
C0000658 0
C0000659 0
C0000660 0
C0000661 0
C0000662 0
C0000663 0
C0000664 0
C0000665 0
C0000666 0
C0000667 0
C0000668 0
C0000669 0
C0000670 0
C0000671 0
C0000672 0
C0000673 0
C0000674 0
C0000675 0
C0000676 0
C0000677 0
C0000678 0
C0000679 0
C0000680 0
C0000681 0
C0000682 0
C0000683 0
C0000684 0
C0000685 0
C0000686 0
C0000687 0
C0000688 0
C0000689 0
C0000690 0
C0000691 0
C0000692 0
C0000693 0
C0000694 0
C0000695 0
C0000696 0
C0000697 0
C0000698 0
C0000699 0
C0000700 0
C0000701 0
C0000702 0
C0000703 0
C0000704 0
C0000705 0
C0000706 0
C0000707 0
C0000708 0
C0000709 0
C0000710 0
C0000711 0
C0000712 0
C0000713 0
C0000714 0
C0000715 0
C0000716 0
C0000717 0
C0000718 0
C0000719 0
C0000720 0
C0000721 0
C0000722 0
C0000723 0
C0000724 0
C0000725 0
C0000726 0
C0000727 0
C0000728 0
C0000729 0
C0000730 0
C0000731 0
C0000732 0
C0000733 0
C0000734 0
C0000735 0
C0000736 0
C0000737 0
C0000738 0
C0000739 0
C0000740 0
C0000741 0
C0000742 0
C0000743 0
C0000744 0
C0000745 0
C0000746 0
C0000747 0
C0000748 0
C0000749 0
C0000750 0
C0000751 0
C0000752 0
C0000753 0
C0000754 0
C0000755 0
C0000756 0
C0000757 0
C0000758 0
C0000759 0
C0000760 0
C0000761 0
C0000762 0
C0000763 0
C0000764 0
C0000765 0
C0000766 0
C0000767 0
C0000768 0
C0000769 0
C0000770 0
C0000771 0
C0000772 0
C0000773 0
C0000774 0
C0000775 0
C0000776 0
C0000777 0
C0000778 0
C0000779 0
C0000780 0
C0000781 0
C0000782 0
C0000783 0
C0000784 0
C0000785 0
C0000786 0
C0000787 0
C0000788 0
C0000789 0
C0000790 0
C0000791 0
C0000792 0
C0000793 0
C0000794 0
C0000795 0
C0000796 0
C0000797 0
C0000798 0
C0000799 0
C0000800 0
C0000801 0
C0000802 0
C0000803 0
C0000804 0
C0000805 0
C0000806 0
C0000807 0
C0000808 0
C0000809 0
C0000810 0
C0000811 0
C0000812 0
C0000813 0
C0000814 0
C0000815 0
C0000816 0
C0000817 0
C0000818 0
C0000819 0
C0000820 0
C0000821 0
C0000822 0
C0000823 0
C0000824 0
C0000825 0
C0000826 0
C0000827 0
C0000828 0
C0000829 0
C0000830 0
C0000831 0
C0000832 0
C0000833 0
C0000834 0
C0000835 0
C0000836 0
C0000837 0
C0000838 0
C0000839 0
C0000840 0
C0000841 0
C0000842 0
C0000843 0
C0000844 0
C0000845 0
C0000846 0
C0000847 0
C0000848 0
C0000849 0
C0001388 7.5808130459390683e+06
C0000850 1
C0000851 1
C0000852 1
C0000853 1
C0000854 1
C0000855 1
C0000856 1
C0000857 1
C0000858 1
C0000859 1
C0000860 1
C0000861 1
C0000862 0
C0000863 0
C0000864 0
C0000865 0
C0000866 1
C0000867 1
C0000868 0
C0000869 0
C0000870 0
C0000871 0
C0000872 0
C0000873 0
C0000874 0
C0000875 0
C0000876 0
C0000877 1
C0000878 1
C0000879 1
C0000880 0
C0000881 1
C0000882 1
C0000883 0
C0000884 1
C0000885 1
C0000886 1
C0000887 1
C0000888 1
C0000889 1
C0000890 1
C0000891 1
C0000892 1
C0000893 0
C0000894 0
C0000895 0
C0000896 0
C0000897 0
C0000898 0
C0000899 0
C0000900 0
C0000901 0
C0000902 0
C0000903 0
C0000904 0
C0000905 0
C0000906 0
C0000907 0
C0000908 0
C0000909 0
C0000910 0
C0000911 1
C0000912 1
C0000913 1
C0000914 1
C0000915 1
C0000916 1
C0000917 1
C0000918 1
C0000919 0
C0000920 1
C0000921 0
C0000922 0
C0000923 0
C0000924 1
C0000925 1
C0000926 1
C0000927 1
C0000928 1
C0000929 1
C0000930 1
C0000931 1
C0000932 1
C0000933 1
C0000934 0
C0000935 0
C0000936 0
C0000937 0
C0000938 0
C0000939 0
C0000940 0
C0000941 0
C0000942 0
C0000943 0
C0000944 0
C0000945 0
C0000946 0
C0000947 0
C0000948 0
C0000949 0
C0000950 1
C0000951 1
C0000952 0
C0000953 0
C0000954 1
C0000955 1
C0000956 1
C0000957 1
C0000958 1
C0000959 1
C0000960 1
C0000961 1
C0000962 1
C0000963 0
C0000964 1
C0000965 0
C0000966 1
C0000967 1
C0000968 1
C0000969 0
C0000970 0
C0000971 0
C0000972 0
C0000973 0
C0000974 0
C0000975 0
C0000976 0
C0000977 0
C0000978 0
C0000979 0
C0000980 0
C0000981 0
C0000982 0
C0000983 0
C0000984 0
C0000985 0
C0000986 0
C0000987 0
C0000988 0
C0000989 1
C0000990 0
C0000991 0
C0000992 1
C0000993 1
C0000994 1
C0000995 1
C0000996 0
C0000997 1
C0000998 1
C0000999 1
C0001000 1
C0001001 1
C0001002 1
C0001003 0
C0001004 1
C0001005 1
C0001006 1
C0001007 0
C0001008 0
C0001009 0
C0001010 0
C0001011 0
C0001012 0
C0001013 0
C0001014 0
C0001015 0
C0001016 0
C0001017 0
C0001018 0
C0001019 0
C0001020 0
C0001021 0
C0001022 0
C0001023 0
C0001024 0
C0001025 0
C0001026 0
C0001027 1
C0001028 1
C0001029 1
C0001030 1
C0001031 1
C0001032 0
C0001033 1
C0001034 0
C0001035 0
C0001036 0
C0001037 0
C0001038 0
C0001039 0
C0001040 0
C0001041 0
C0001042 1
C0001043 0
C0001044 0
C0001045 0
C0001046 0
C0001047 0
C0001048 0
C0001049 0
C0001050 0
C0001051 0
C0001052 0
C0001053 0
C0001054 0
C0001055 0
C0001056 0
C0001057 0
C0001058 0
C0001059 0
C0001060 0
C0001061 0
C0001062 1
C0001063 0
C0001064 0
C0001065 0
C0001066 0
C0001067 0
C0001068 0
C0001069 0
C0001070 0
C0001071 0
C0001072 0
C0001073 0
C0001074 0
C0001075 0
C0001076 0
C0001077 0
C0001078 0
C0001079 0
C0001080 0
C0001081 0
C0001082 0
C0001083 0
C0001084 1
C0001085 0
C0001086 0
C0001087 0
C0001088 1
C0001089 1
C0001090 1
C0001091 0
C0001092 0
C0001093 1
C0001094 1
C0001095 1
C0001096 1
C0001097 1
C0001098 1
C0001099 1
C0001100 1
C0001101 0
C0001102 1
C0001103 0
C0001104 0
C0001105 1
C0001106 0
C0001107 0
C0001108 0
C0001109 0
C0001110 0
C0001111 0
C0001112 0
C0001113 0
C0001114 0
C0001115 1
C0001116 0
C0001117 0
C0001118 0
C0001119 0
C0001120 1
C0001121 1
C0001122 0
C0001123 1
C0001124 0
C0001125 0
C0001126 0
C0001127 0
C0001128 0
C0001129 1
C0001130 1
C0001131 1
C0001132 1
C0001133 0
C0001134 1
C0001135 1
C0001136 1
C0001137 0
C0001138 1
C0001139 1
C0001140 1
C0001141 1
C0001142 0
C0001143 1
C0001144 0
C0001145 1
C0001146 1
C0001147 1
C0001148 0
C0001149 0
C0001150 0
C0001151 0
C0001152 0
C0001153 0
C0001154 0
C0001155 0
C0001156 0
C0001157 0
C0001158 0
C0001159 0
C0001160 1
C0001161 1
C0001162 1
C0001163 0
C0001164 1
C0001165 0
C0001166 1
C0001167 1
C0001168 1
C0001169 1
C0001170 1
C0001171 1
C0001172 1
C0001173 1
C0001174 1
C0001175 1
C0001176 1
C0001177 1
C0001178 1
C0001179 1
C0001180 1
C0001181 1
C0001182 1
C0001183 1
C0001184 1
C0001185 1
C0001186 0
C0001187 0
C0001188 0
C0001189 0
C0001190 0
C0001191 0
C0001192 0
C0001193 0
C0001194 0
C0001195 0
C0001196 0
C0001197 0
C0001198 0
C0001199 0
C0001200 0
C0001201 0
C0001202 0
C0001203 0
C0001204 0
C0001205 0
C0001206 0
C0001207 0
C0001208 0
C0001209 0
C0001210 0
C0001211 0
C0001212 0
C0001213 0
C0001214 0
C0001215 0
C0001216 0
C0001217 0
C0001218 0
C0001219 0
C0001220 0
C0001221 0
C0001222 0
C0001223 0
C0001224 0
C0001225 0
C0001226 0
C0001227 0
C0001228 0
C0001229 0
C0001230 0
C0001231 0
C0001232 0
C0001233 0
C0001234 0
C0001235 0
C0001236 0
C0001237 0
C0001238 0
C0001239 0
C0001240 0
C0001241 0
C0001242 0
C0001243 1
C0001244 0
C0001245 1
C0001246 1
C0001247 1
C0001248 1
C0001249 1
C0001250 1
C0001251 0
C0001252 0
C0001253 0
C0001254 0
C0001255 1
C0001256 1
C0001257 1
C0001258 1
C0001259 1
C0001260 1
C0001261 1
C0001262 1
C0001263 1
C0001264 1
C0001265 1
C0001266 2
C0001267 0
C0001268 0
C0001269 0
C0001270 0
C0001271 0
C0001272 0
C0001273 0
C0001274 1
C0001275 0
C0001276 0
C0001277 0
C0001278 0
C0001279 0
C0001280 0
C0001281 3
C0001282 0
C0001283 0
C0001284 0
C0001285 0
C0001286 3
C0001287 0
C0001288 0
C0001289 1
C0001290 2
C0001291 5
C0001292 4
C0001293 0
C0001294 2
C0001295 3
C0001296 2
C0001297 0
C0001298 6
C0001299 5
C0001300 0
C0001301 0
C0001302 3
C0001303 0
C0001304 0
C0001305 0
C0001306 0
C0001307 0
C0001308 0
C0001309 0
C0001310 0
C0001311 0
C0001312 1
C0001313 0
C0001314 0
C0001315 0
C0001316 1
C0001317 0
C0001318 1
C0001319 0
C0001320 5
C0001321 0
C0001322 1
C0001323 0
C0001324 0
C0001325 0
C0001326 0
C0001327 0
C0001328 0
C0001329 0
C0001330 3
C0001331 3
C0001332 3
C0001333 3
C0001334 1
C0001335 0
C0001336 0
C0001337 1
C0001338 3
C0001339 0
C0001340 1
C0001341 0
C0001342 3
C0001343 10
C0001344 3
C0001345 0
C0001346 0
C0001347 0
C0001348 0
C0001349 0
C0001350 0
C0001351 0
C0001352 0
C0001353 0
C0001354 0
C0001355 2
C0001356 0
C0001357 0
C0001358 1
C0001359 1
C0001360 0
C0001361 2
C0001362 0
C0001363 0
C0001364 0
C0001365 0
C0001366 0
C0001367 0
C0001368 0
C0001369 0
C0001370 0
C0001371 0
C0001372 0
C0001373 0
C0001374 1
C0001375 0
C0001376 0
C0001377 0
C0001378 0
C0001379 0
C0001380 0
C0001381 0
C0001382 0
C0001383 0
C0001384 0
C0001385 0
C0001386 0
C0001387 1
